language ESSENCE' 1.0

letting jobs = 102
letting horizon = 804
letting resourcesRenew = 2
letting resourcesNonrenew = 2
letting resourceLimits = [66, 65, 550, 508]
letting successors = [[2, 3, 4, 5, 6, 7, 8, 9, 11, 12, 13, 14, 15, 17, 18, 19, 20, 22, 23, 24, 26, 27, 28, 29, 30, 32, 33, 34, 36, 38, 39, 41, 42, 47, 52], [98, 69, 68, 63, 61, 51, 49, 44, 40, 31, 10], [101, 99, 96, 95, 71, 68, 63, 57, 56, 54, 53, 48, 21, 16], [98, 91, 68, 64, 61, 58, 55, 54, 51, 49, 43, 25], [101, 100, 99, 96, 95, 91, 90, 89, 87, 86, 82, 79, 71, 70, 69, 68, 67, 66, 64, 62, 61, 59, 58, 55, 54, 53], [100, 95, 93, 87, 70, 68, 66, 64, 61, 58, 55, 53, 48, 45, 37], [100, 98, 87, 81, 69, 63, 62, 59, 53, 48, 46, 45, 44], [99, 96, 90, 87, 84, 68, 66, 63, 61, 55, 54, 49, 48, 45], [100, 98, 94, 92, 88, 82, 71, 69, 68, 67, 66, 54, 53, 35], [101, 100, 99, 96, 95, 93, 92, 89, 87, 78, 67, 66, 58, 55, 50, 45], [100, 96, 86, 83, 65, 49, 31], [101, 99, 98, 97, 95, 94, 93, 92, 91, 89, 87, 84, 76, 73, 70, 68, 67, 54, 45], [101, 96, 94, 91, 89, 87, 78, 67, 66, 61, 58, 51, 45], [97, 96, 94, 93, 91, 89, 86, 82, 79, 78, 75, 73, 69, 67, 65, 63, 61, 58, 51], [100, 96, 95, 94, 93, 92, 90, 89, 88, 87, 85, 84, 82, 80, 79, 78, 74, 69, 67, 66, 65, 63, 62], [100, 98, 97, 94, 92, 89, 88, 87, 86, 82, 79, 78, 74, 73, 70, 69, 67, 65, 62, 50], [99, 98, 96, 95, 93, 92, 91, 90, 89, 87, 86, 85, 82, 76, 74, 72, 67, 66, 62, 55, 54], [98, 97, 96, 91, 87, 86, 85, 84, 82, 75, 68, 65, 64, 59, 54, 51], [98, 97, 92, 89, 82, 79, 75, 72, 67, 50, 40], [99, 98, 96, 91, 90, 88, 87, 86, 80, 79, 78, 76, 75, 72, 70, 68, 67, 66, 65, 61], [93, 90, 89, 88, 87, 86, 82, 79, 78, 75, 74, 72, 70, 66, 55, 50], [98, 96, 94, 93, 92, 91, 90, 85, 83, 78, 76, 73, 68, 67, 45], [98, 96, 90, 88, 87, 85, 81, 77, 76, 75, 72, 68, 53, 48], [91, 89, 87, 84, 82, 79, 77, 74, 73, 67, 61, 59, 54, 51], [99, 96, 95, 94, 90, 88, 87, 86, 84, 82, 81, 80, 79, 76, 75, 74, 71, 70, 69, 66, 65], [101, 97, 91, 90, 89, 88, 86, 84, 82, 81, 80, 79, 78, 76, 75, 73, 70, 69, 68, 65], [95, 92, 89, 88, 87, 86, 83, 82, 80, 79, 75, 70, 69, 66, 65, 53], [98, 95, 90, 87, 81, 59, 53, 45], [98, 97, 94, 91, 90, 89, 88, 87, 85, 84, 83, 81, 80, 79, 78, 77, 76, 75, 74, 66], [100, 96, 95, 93, 90, 89, 87, 86, 84, 83, 82, 81, 79, 76, 75, 74, 72, 66, 65], [101, 97, 92, 91, 90, 88, 82, 80, 79, 77, 76, 75, 72, 70, 66, 53], [98, 93, 89, 87, 86, 85, 84, 80, 79, 78, 74, 72, 67, 62, 60], [98, 95, 93, 88, 82, 80, 77, 76, 75, 74, 72, 48], [100, 97, 95, 92, 90, 88, 87, 86, 84, 82, 80, 79, 75, 74, 72, 66, 65], [101, 99, 97, 95, 93, 90, 87, 86, 85, 83, 80, 79, 76, 75, 74, 73, 65], [95, 92, 91, 89, 88, 87, 85, 84, 83, 80, 79, 78, 77, 76, 75, 72, 66], [90, 86, 85, 82, 80, 79, 78, 76, 74, 69, 65, 62], [98, 88, 84, 82, 77, 68, 49], [96, 95, 91, 89, 88, 84, 82, 79, 78, 75, 73, 72, 65], [96, 95, 94, 93, 87, 83, 81, 80, 78, 76, 74, 73], [98, 90, 87, 86, 83, 81, 80, 78, 75, 72, 68], [93, 89, 87, 84, 78, 77, 76, 72, 67, 66], [100, 99, 96, 86, 85, 84, 83, 82, 74, 73, 72], [95, 84, 83, 79, 78, 76, 75, 74, 73, 65], [88, 86, 82, 80, 79, 75, 72, 65], [101, 95, 91, 90, 85, 82, 79, 66], [94, 87, 82, 81, 78, 75, 73, 68], [97, 94, 92, 91, 89, 86, 83, 79], [95, 94, 93, 89, 78, 72, 67], [91, 85, 84, 83, 80, 77, 76], [99, 92, 90, 88, 83, 76], [99, 91, 81, 75, 73], [84, 78, 74, 73], [83, 81, 80, 78], [94, 81, 80, 77], [89, 85, 79, 76], [82, 81, 75, 73], [84, 74, 72], [93, 76, 72], [82, 76, 73], [92, 85], [83, 75], [76, 72], [80, 78], [77], [73], [81], [74], [72], [85], [72], [102], [102], [102], [102], [102], [102], [102], [102], [102], [102], [102], [102], [102], [102], [102], [102], [102], [102], [102], [102], [102], [102], [102], [102], [102], [102], [102], [102], [102], [102], []]
letting durations = [[0], [3, 4, 8], [1, 3, 10], [1, 6, 8], [3, 6, 7], [5, 7, 8], [1, 2, 6], [6, 8, 9], [1, 4, 7], [1, 2, 3], [5, 6, 9], [2, 3, 7], [2, 5, 10], [5, 6, 7], [1, 2, 3], [2, 4, 8], [3, 5, 7], [7, 8, 10], [3, 7, 8], [5, 6, 8], [1, 2, 7], [3, 4, 7], [3, 4, 10], [3, 9, 10], [2, 4, 6], [1, 3, 8], [1, 4, 8], [5, 9, 10], [4, 7, 9], [1, 5, 10], [3, 6, 7], [4, 5, 9], [4, 5, 6], [1, 3, 6], [5, 6, 9], [1, 6, 10], [4, 7, 8], [3, 4, 5], [2, 7, 9], [1, 2, 3], [4, 6, 9], [2, 3, 8], [4, 6, 9], [1, 2, 3], [3, 4, 6], [2, 7, 8], [4, 6, 9], [3, 9, 10], [3, 4, 8], [2, 6, 9], [1, 4, 5], [4, 9, 10], [1, 2, 10], [5, 6, 7], [4, 7, 8], [3, 5, 7], [3, 5, 8], [3, 4, 9], [2, 3, 9], [2, 8, 9], [2, 3, 4], [1, 2, 8], [4, 7, 9], [3, 4, 5], [4, 5, 10], [1, 2, 7], [4, 5, 6], [5, 7, 8], [2, 4, 5], [5, 9, 10], [1, 4, 9], [3, 5, 10], [1, 3, 10], [1, 3, 8], [2, 6, 9], [1, 3, 9], [1, 3, 7], [3, 5, 9], [2, 3, 9], [5, 6, 8], [5, 6, 10], [1, 2, 8], [4, 5, 10], [2, 4, 8], [7, 9, 10], [2, 3, 8], [2, 3, 7], [2, 3, 10], [1, 6, 10], [5, 6, 7], [1, 5, 9], [3, 6, 7], [3, 7, 9], [6, 7, 10], [4, 6, 7], [2, 6, 10], [1, 5, 7], [7, 9, 10], [1, 9, 10], [3, 6, 9], [3, 6, 7], [0]]
letting resourceUsage = [[[0, 0, 0, 0]], [[4, 3, 8, 7], [3, 2, 8, 5], [3, 2, 8, 3]], [[9, 7, 9, 5], [6, 6, 9, 5], [5, 6, 8, 5]], [[7, 7, 7, 7], [6, 6, 4, 7], [6, 5, 4, 6]], [[6, 2, 5, 5], [3, 2, 3, 3], [2, 1, 2, 2]], [[7, 6, 5, 3], [6, 3, 2, 3], [6, 2, 2, 3]], [[1, 9, 5, 7], [1, 7, 5, 5], [1, 6, 1, 3]], [[3, 10, 8, 7], [2, 7, 6, 4], [2, 7, 4, 4]], [[3, 8, 5, 8], [1, 8, 5, 8], [1, 6, 5, 4]], [[10, 7, 3, 4], [9, 7, 2, 4], [9, 5, 1, 3]], [[7, 8, 8, 5], [6, 4, 7, 5], [6, 4, 6, 5]], [[8, 6, 9, 9], [6, 5, 6, 9], [4, 4, 5, 9]], [[5, 6, 6, 9], [4, 4, 3, 8], [4, 2, 1, 5]], [[5, 2, 7, 5], [4, 2, 7, 5], [4, 2, 6, 5]], [[8, 7, 8, 8], [6, 4, 4, 8], [6, 3, 4, 8]], [[6, 5, 1, 3], [4, 3, 1, 3], [2, 3, 1, 3]], [[8, 7, 8, 6], [6, 7, 7, 4], [3, 7, 7, 2]], [[7, 6, 9, 3], [4, 3, 9, 2], [4, 2, 7, 2]], [[8, 6, 9, 4], [7, 6, 9, 3], [6, 6, 7, 1]], [[2, 7, 7, 9], [2, 7, 4, 8], [2, 6, 4, 7]], [[4, 6, 5, 4], [4, 4, 4, 4], [3, 3, 1, 3]], [[7, 6, 7, 8], [6, 6, 4, 6], [3, 4, 2, 3]], [[7, 5, 7, 9], [4, 5, 3, 9], [1, 5, 2, 9]], [[9, 5, 9, 5], [8, 5, 7, 4], [7, 4, 5, 3]], [[2, 8, 6, 10], [2, 6, 3, 7], [1, 4, 1, 5]], [[10, 10, 8, 8], [7, 7, 8, 7], [6, 6, 8, 5]], [[9, 9, 8, 6], [9, 7, 5, 6], [9, 4, 3, 2]], [[9, 7, 10, 4], [6, 4, 9, 3], [5, 3, 9, 3]], [[7, 9, 7, 5], [7, 7, 6, 5], [6, 5, 6, 5]], [[8, 6, 7, 5], [7, 6, 6, 4], [5, 6, 6, 2]], [[6, 6, 1, 3], [4, 4, 1, 3], [1, 4, 1, 2]], [[7, 5, 5, 9], [5, 5, 4, 6], [5, 4, 3, 4]], [[10, 6, 5, 1], [9, 5, 5, 1], [9, 3, 5, 1]], [[8, 7, 7, 9], [8, 5, 7, 7], [7, 3, 7, 6]], [[8, 4, 5, 7], [6, 3, 2, 6], [4, 3, 2, 6]], [[8, 7, 4, 2], [6, 4, 2, 1], [3, 3, 2, 1]], [[4, 6, 9, 7], [2, 6, 7, 5], [2, 5, 3, 3]], [[9, 5, 9, 3], [8, 4, 7, 1], [7, 4, 7, 1]], [[7, 8, 9, 9], [5, 4, 6, 7], [4, 2, 1, 6]], [[5, 5, 6, 9], [3, 4, 4, 6], [2, 3, 3, 6]], [[3, 6, 8, 8], [3, 4, 7, 7], [3, 4, 5, 6]], [[4, 9, 6, 3], [4, 8, 3, 2], [2, 8, 2, 1]], [[9, 7, 4, 5], [8, 6, 3, 5], [7, 3, 3, 4]], [[8, 5, 1, 5], [6, 4, 1, 4], [5, 4, 1, 3]], [[5, 7, 4, 7], [4, 6, 2, 5], [3, 4, 2, 4]], [[8, 8, 9, 9], [6, 7, 6, 7], [5, 7, 4, 7]], [[8, 3, 3, 6], [6, 3, 3, 5], [5, 2, 2, 5]], [[8, 3, 7, 5], [7, 2, 6, 4], [7, 1, 6, 3]], [[5, 6, 8, 6], [3, 5, 6, 4], [1, 4, 5, 4]], [[7, 6, 6, 8], [6, 5, 4, 7], [2, 5, 4, 7]], [[5, 4, 6, 6], [5, 3, 6, 6], [4, 3, 6, 3]], [[9, 10, 10, 4], [5, 7, 8, 3], [3, 6, 8, 2]], [[7, 5, 10, 7], [4, 3, 7, 4], [1, 2, 4, 1]], [[3, 3, 10, 5], [2, 3, 8, 4], [1, 2, 7, 3]], [[8, 8, 7, 7], [6, 4, 6, 5], [2, 2, 6, 4]], [[4, 4, 6, 8], [3, 3, 4, 6], [2, 3, 4, 6]], [[8, 7, 8, 6], [8, 5, 7, 6], [7, 4, 7, 5]], [[9, 8, 10, 6], [5, 7, 7, 6], [4, 5, 2, 3]], [[4, 6, 9, 4], [4, 5, 7, 2], [3, 5, 1, 2]], [[8, 7, 7, 7], [8, 7, 6, 6], [6, 7, 6, 5]], [[2, 5, 9, 5], [2, 2, 9, 4], [2, 2, 9, 3]], [[3, 3, 5, 10], [3, 3, 5, 9], [1, 2, 5, 8]], [[9, 6, 6, 6], [7, 6, 6, 4], [7, 6, 4, 3]], [[7, 7, 4, 9], [5, 7, 3, 7], [3, 6, 1, 7]], [[7, 6, 10, 3], [5, 5, 10, 3], [3, 4, 10, 2]], [[10, 7, 9, 5], [9, 7, 6, 4], [9, 7, 4, 3]], [[10, 4, 7, 3], [7, 4, 6, 2], [4, 2, 5, 2]], [[6, 6, 4, 6], [6, 5, 4, 4], [2, 5, 4, 4]], [[4, 6, 3, 4], [3, 5, 3, 2], [2, 5, 2, 2]], [[8, 1, 6, 8], [8, 1, 6, 7], [8, 1, 6, 6]], [[10, 5, 7, 8], [10, 4, 3, 7], [10, 1, 2, 6]], [[5, 8, 5, 5], [5, 8, 4, 5], [3, 8, 2, 1]], [[6, 6, 1, 10], [6, 4, 1, 8], [3, 3, 1, 5]], [[6, 7, 7, 4], [5, 7, 7, 3], [3, 7, 5, 3]], [[6, 6, 7, 7], [5, 3, 7, 6], [1, 3, 7, 4]], [[7, 8, 5, 4], [7, 4, 4, 3], [5, 3, 4, 3]], [[8, 7, 9, 4], [5, 6, 8, 3], [2, 5, 6, 3]], [[7, 9, 9, 6], [7, 7, 9, 5], [7, 5, 9, 5]], [[7, 6, 9, 9], [5, 6, 8, 9], [3, 4, 8, 8]], [[4, 1, 5, 6], [4, 1, 5, 5], [3, 1, 3, 5]], [[10, 5, 9, 7], [7, 4, 8, 5], [6, 3, 6, 3]], [[7, 5, 6, 7], [5, 4, 2, 6], [3, 3, 2, 5]], [[7, 6, 8, 6], [7, 3, 7, 6], [6, 3, 7, 6]], [[1, 7, 10, 7], [1, 3, 7, 4], [1, 2, 4, 3]], [[8, 9, 8, 9], [7, 8, 7, 7], [7, 8, 7, 6]], [[9, 7, 8, 5], [7, 7, 6, 3], [7, 6, 3, 3]], [[6, 7, 10, 9], [6, 7, 7, 6], [6, 5, 6, 6]], [[2, 7, 7, 2], [2, 6, 5, 1], [1, 5, 5, 1]], [[6, 8, 4, 3], [2, 8, 3, 3], [2, 8, 1, 3]], [[6, 7, 8, 4], [4, 7, 5, 3], [1, 5, 5, 2]], [[4, 7, 6, 6], [3, 6, 6, 4], [2, 3, 6, 4]], [[8, 2, 6, 5], [5, 1, 5, 5], [4, 1, 4, 5]], [[7, 10, 9, 10], [7, 10, 8, 8], [7, 10, 7, 4]], [[6, 9, 3, 10], [6, 9, 3, 6], [5, 9, 3, 3]], [[9, 3, 6, 6], [7, 3, 4, 5], [3, 1, 3, 4]], [[10, 5, 3, 9], [8, 5, 3, 5], [8, 5, 3, 3]], [[8, 6, 10, 6], [6, 5, 6, 5], [5, 5, 5, 4]], [[5, 7, 6, 3], [2, 3, 4, 3], [1, 2, 4, 2]], [[9, 7, 3, 8], [9, 3, 2, 8], [9, 3, 1, 6]], [[10, 6, 4, 9], [10, 6, 4, 7], [10, 1, 2, 3]], [[8, 1, 8, 8], [7, 1, 6, 5], [5, 1, 6, 3]], [[0, 0, 0, 0]]]
